p cnf 200 1110
-101 22 0
-101 -96 0
-101 3 0
-101 2 0
-101 -29 0
-101 -65 0
-101 5 0
-101 -43 0
-101 52 0
-101 86 0
101 -22 96 -3 -2 29 65 -5 43 -52 -86 0
-102 -89 0
-102 72 0
-102 20 0
-102 -41 0
-102 -59 0
-102 47 0
-102 30 0
-102 36 0
-102 64 0
-102 -11 0
102 89 -72 -20 41 59 -47 -30 -36 -64 11 0
-103 82 0
-103 -76 0
-103 48 0
-103 -46 0
-103 -15 0
-103 10 0
-103 23 0
-103 -66 0
-103 -60 0
-103 65 0
103 -82 76 -48 46 15 -10 -23 66 60 -65 0
-104 12 0
-104 -35 0
-104 7 0
-104 -2 0
-104 32 0
-104 59 0
-104 -90 0
-104 -46 0
-104 91 0
-104 -64 0
104 -12 35 -7 2 -32 -59 90 46 -91 64 0
-105 84 0
-105 -87 0
-105 -76 0
-105 -97 0
-105 -12 0
-105 -83 0
-105 -13 0
-105 -53 0
-105 6 0
-105 39 0
105 -84 87 76 97 12 83 13 53 -6 -39 0
-106 -61 0
-106 -14 0
-106 -79 0
-106 -60 0
-106 72 0
-106 31 0
-106 5 0
-106 -73 0
-106 34 0
-106 -85 0
106 61 14 79 60 -72 -31 -5 73 -34 85 0
-107 8 0
-107 -94 0
-107 -12 0
-107 81 0
-107 30 0
-107 90 0
-107 44 0
-107 88 0
-107 -99 0
-107 2 0
107 -8 94 12 -81 -30 -90 -44 -88 99 -2 0
-108 36 0
-108 -5 0
-108 -18 0
-108 -47 0
-108 -79 0
-108 -50 0
-108 -97 0
-108 -35 0
-108 39 0
-108 -11 0
108 -36 5 18 47 79 50 97 35 -39 11 0
-109 -40 0
-109 80 0
-109 81 0
-109 25 0
-109 -90 0
-109 71 0
-109 31 0
-109 -19 0
-109 -41 0
-109 -37 0
109 40 -80 -81 -25 90 -71 -31 19 41 37 0
-110 81 0
-110 52 0
-110 -62 0
-110 37 0
-110 -38 0
-110 7 0
-110 -30 0
-110 24 0
-110 55 0
-110 -53 0
110 -81 -52 62 -37 38 -7 30 -24 -55 53 0
101 102 103 104 105 106 107 108 109 110 0
-111 83 0
-111 48 0
-111 -98 0
-111 73 0
-111 39 0
-111 7 0
-111 62 0
-111 -55 0
-111 -96 0
-111 52 0
111 -83 -48 98 -73 -39 -7 -62 55 96 -52 0
-112 96 0
-112 26 0
-112 -31 0
-112 18 0
-112 -33 0
-112 -64 0
-112 -16 0
-112 -45 0
-112 59 0
-112 9 0
112 -96 -26 31 -18 33 64 16 45 -59 -9 0
-113 -92 0
-113 -68 0
-113 52 0
-113 -13 0
-113 -97 0
-113 55 0
-113 6 0
-113 12 0
-113 -84 0
-113 81 0
113 92 68 -52 13 97 -55 -6 -12 84 -81 0
-114 37 0
-114 25 0
-114 45 0
-114 24 0
-114 56 0
-114 -14 0
-114 98 0
-114 63 0
-114 87 0
-114 46 0
114 -37 -25 -45 -24 -56 14 -98 -63 -87 -46 0
-115 76 0
-115 42 0
-115 -8 0
-115 23 0
-115 68 0
-115 21 0
-115 29 0
-115 31 0
-115 30 0
-115 3 0
115 -76 -42 8 -23 -68 -21 -29 -31 -30 -3 0
-116 70 0
-116 82 0
-116 -61 0
-116 57 0
-116 -37 0
-116 9 0
-116 81 0
-116 -40 0
-116 -16 0
-116 69 0
116 -70 -82 61 -57 37 -9 -81 40 16 -69 0
-117 -35 0
-117 66 0
-117 -52 0
-117 -10 0
-117 -76 0
-117 5 0
-117 26 0
-117 4 0
-117 18 0
-117 -57 0
117 35 -66 52 10 76 -5 -26 -4 -18 57 0
-118 92 0
-118 4 0
-118 -72 0
-118 22 0
-118 95 0
-118 -7 0
-118 98 0
-118 -3 0
-118 64 0
-118 33 0
118 -92 -4 72 -22 -95 7 -98 3 -64 -33 0
-119 22 0
-119 -84 0
-119 66 0
-119 -27 0
-119 52 0
-119 12 0
-119 -72 0
-119 54 0
-119 58 0
-119 23 0
119 -22 84 -66 27 -52 -12 72 -54 -58 -23 0
-120 -17 0
-120 77 0
-120 8 0
-120 49 0
-120 -27 0
-120 -54 0
-120 -29 0
-120 -88 0
-120 -82 0
-120 97 0
120 17 -77 -8 -49 27 54 29 88 82 -97 0
111 112 113 114 115 116 117 118 119 120 0
-121 -53 0
-121 27 0
-121 5 0
-121 85 0
-121 97 0
-121 -37 0
-121 75 0
-121 62 0
-121 10 0
-121 15 0
121 53 -27 -5 -85 -97 37 -75 -62 -10 -15 0
-122 -30 0
-122 88 0
-122 6 0
-122 43 0
-122 -38 0
-122 60 0
-122 41 0
-122 97 0
-122 36 0
-122 -65 0
122 30 -88 -6 -43 38 -60 -41 -97 -36 65 0
-123 82 0
-123 17 0
-123 -59 0
-123 73 0
-123 -52 0
-123 -42 0
-123 -8 0
-123 -72 0
-123 93 0
-123 99 0
123 -82 -17 59 -73 52 42 8 72 -93 -99 0
-124 -63 0
-124 20 0
-124 22 0
-124 77 0
-124 -72 0
-124 -39 0
-124 32 0
-124 67 0
-124 -54 0
-124 75 0
124 63 -20 -22 -77 72 39 -32 -67 54 -75 0
-125 56 0
-125 -68 0
-125 -46 0
-125 -81 0
-125 -40 0
-125 12 0
-125 -44 0
-125 28 0
-125 59 0
-125 -35 0
125 -56 68 46 81 40 -12 44 -28 -59 35 0
-126 -24 0
-126 14 0
-126 100 0
-126 -72 0
-126 -50 0
-126 44 0
-126 -59 0
-126 -90 0
-126 -18 0
-126 85 0
126 24 -14 -100 72 50 -44 59 90 18 -85 0
-127 53 0
-127 46 0
-127 -64 0
-127 -22 0
-127 -36 0
-127 -34 0
-127 9 0
-127 -48 0
-127 37 0
-127 -83 0
127 -53 -46 64 22 36 34 -9 48 -37 83 0
-128 80 0
-128 -64 0
-128 -36 0
-128 -11 0
-128 -53 0
-128 81 0
-128 -95 0
-128 23 0
-128 -8 0
-128 -17 0
128 -80 64 36 11 53 -81 95 -23 8 17 0
-129 -66 0
-129 90 0
-129 -35 0
-129 -100 0
-129 -67 0
-129 -88 0
-129 75 0
-129 -59 0
-129 -83 0
-129 20 0
129 66 -90 35 100 67 88 -75 59 83 -20 0
-130 15 0
-130 -61 0
-130 -19 0
-130 2 0
-130 52 0
-130 49 0
-130 83 0
-130 48 0
-130 29 0
-130 -86 0
130 -15 61 19 -2 -52 -49 -83 -48 -29 86 0
121 122 123 124 125 126 127 128 129 130 0
-131 55 0
-131 39 0
-131 26 0
-131 6 0
-131 63 0
-131 30 0
-131 -48 0
-131 73 0
-131 99 0
-131 97 0
131 -55 -39 -26 -6 -63 -30 48 -73 -99 -97 0
-132 77 0
-132 -2 0
-132 -48 0
-132 76 0
-132 -86 0
-132 35 0
-132 -96 0
-132 -70 0
-132 -21 0
-132 80 0
132 -77 2 48 -76 86 -35 96 70 21 -80 0
-133 19 0
-133 70 0
-133 -88 0
-133 33 0
-133 91 0
-133 81 0
-133 6 0
-133 45 0
-133 -15 0
-133 30 0
133 -19 -70 88 -33 -91 -81 -6 -45 15 -30 0
-134 51 0
-134 1 0
-134 -7 0
-134 24 0
-134 -11 0
-134 -37 0
-134 5 0
-134 -22 0
-134 91 0
-134 10 0
134 -51 -1 7 -24 11 37 -5 22 -91 -10 0
-135 -17 0
-135 -94 0
-135 -37 0
-135 -52 0
-135 -42 0
-135 -13 0
-135 40 0
-135 6 0
-135 -3 0
-135 88 0
135 17 94 37 52 42 13 -40 -6 3 -88 0
-136 66 0
-136 4 0
-136 -18 0
-136 6 0
-136 76 0
-136 -7 0
-136 59 0
-136 39 0
-136 -77 0
-136 81 0
136 -66 -4 18 -6 -76 7 -59 -39 77 -81 0
-137 14 0
-137 74 0
-137 -38 0
-137 16 0
-137 -68 0
-137 -99 0
-137 -43 0
-137 23 0
-137 -25 0
-137 -81 0
137 -14 -74 38 -16 68 99 43 -23 25 81 0
-138 -24 0
-138 -76 0
-138 -33 0
-138 -64 0
-138 9 0
-138 -94 0
-138 -13 0
-138 20 0
-138 -26 0
-138 -73 0
138 24 76 33 64 -9 94 13 -20 26 73 0
-139 38 0
-139 72 0
-139 50 0
-139 -64 0
-139 23 0
-139 3 0
-139 15 0
-139 -61 0
-139 69 0
-139 -35 0
139 -38 -72 -50 64 -23 -3 -15 61 -69 35 0
-140 -32 0
-140 49 0
-140 -5 0
-140 56 0
-140 -21 0
-140 71 0
-140 62 0
-140 -68 0
-140 43 0
-140 69 0
140 32 -49 5 -56 21 -71 -62 68 -43 -69 0
131 132 133 134 135 136 137 138 139 140 0
-141 4 0
-141 -69 0
-141 38 0
-141 -35 0
-141 -65 0
-141 -79 0
-141 -49 0
-141 -40 0
-141 47 0
-141 13 0
141 -4 69 -38 35 65 79 49 40 -47 -13 0
-142 13 0
-142 -37 0
-142 33 0
-142 -58 0
-142 92 0
-142 -75 0
-142 -18 0
-142 98 0
-142 42 0
-142 -6 0
142 -13 37 -33 58 -92 75 18 -98 -42 6 0
-143 -8 0
-143 -63 0
-143 26 0
-143 -52 0
-143 -35 0
-143 -11 0
-143 -57 0
-143 -32 0
-143 43 0
-143 92 0
143 8 63 -26 52 35 11 57 32 -43 -92 0
-144 -78 0
-144 48 0
-144 -45 0
-144 29 0
-144 -31 0
-144 35 0
-144 41 0
-144 47 0
-144 98 0
-144 92 0
144 78 -48 45 -29 31 -35 -41 -47 -98 -92 0
-145 38 0
-145 57 0
-145 -16 0
-145 -41 0
-145 -88 0
-145 -59 0
-145 -53 0
-145 52 0
-145 89 0
-145 -64 0
145 -38 -57 16 41 88 59 53 -52 -89 64 0
-146 -89 0
-146 -76 0
-146 -12 0
-146 -75 0
-146 45 0
-146 -36 0
-146 -1 0
-146 -48 0
-146 23 0
-146 22 0
146 89 76 12 75 -45 36 1 48 -23 -22 0
-147 34 0
-147 -75 0
-147 9 0
-147 -97 0
-147 22 0
-147 -92 0
-147 -50 0
-147 35 0
-147 -2 0
-147 86 0
147 -34 75 -9 97 -22 92 50 -35 2 -86 0
-148 46 0
-148 88 0
-148 18 0
-148 80 0
-148 94 0
-148 -49 0
-148 68 0
-148 -58 0
-148 -97 0
-148 9 0
148 -46 -88 -18 -80 -94 49 -68 58 97 -9 0
-149 -21 0
-149 80 0
-149 88 0
-149 14 0
-149 -98 0
-149 84 0
-149 35 0
-149 -32 0
-149 59 0
-149 64 0
149 21 -80 -88 -14 98 -84 -35 32 -59 -64 0
-150 -33 0
-150 -100 0
-150 -67 0
-150 -57 0
-150 87 0
-150 46 0
-150 -77 0
-150 93 0
-150 44 0
-150 -28 0
150 33 100 67 57 -87 -46 77 -93 -44 28 0
141 142 143 144 145 146 147 148 149 150 0
-151 53 0
-151 49 0
-151 12 0
-151 -42 0
-151 -93 0
-151 -67 0
-151 37 0
-151 80 0
-151 -28 0
-151 -61 0
151 -53 -49 -12 42 93 67 -37 -80 28 61 0
-152 -61 0
-152 -42 0
-152 34 0
-152 -40 0
-152 -19 0
-152 98 0
-152 38 0
-152 3 0
-152 -88 0
-152 23 0
152 61 42 -34 40 19 -98 -38 -3 88 -23 0
-153 54 0
-153 33 0
-153 94 0
-153 87 0
-153 -3 0
-153 6 0
-153 72 0
-153 42 0
-153 -81 0
-153 -70 0
153 -54 -33 -94 -87 3 -6 -72 -42 81 70 0
-154 47 0
-154 -13 0
-154 86 0
-154 -88 0
-154 98 0
-154 40 0
-154 11 0
-154 -36 0
-154 99 0
-154 -16 0
154 -47 13 -86 88 -98 -40 -11 36 -99 16 0
-155 -5 0
-155 -37 0
-155 55 0
-155 9 0
-155 -93 0
-155 79 0
-155 -73 0
-155 72 0
-155 -84 0
-155 -53 0
155 5 37 -55 -9 93 -79 73 -72 84 53 0
-156 -71 0
-156 57 0
-156 -31 0
-156 -99 0
-156 -35 0
-156 1 0
-156 -95 0
-156 77 0
-156 -91 0
-156 -53 0
156 71 -57 31 99 35 -1 95 -77 91 53 0
-157 30 0
-157 22 0
-157 93 0
-157 73 0
-157 -16 0
-157 -5 0
-157 -79 0
-157 -26 0
-157 -95 0
-157 35 0
157 -30 -22 -93 -73 16 5 79 26 95 -35 0
-158 -71 0
-158 -60 0
-158 -26 0
-158 -15 0
-158 -63 0
-158 -40 0
-158 -97 0
-158 48 0
-158 -82 0
-158 -50 0
158 71 60 26 15 63 40 97 -48 82 50 0
-159 -39 0
-159 9 0
-159 93 0
-159 43 0
-159 61 0
-159 24 0
-159 27 0
-159 28 0
-159 13 0
-159 86 0
159 39 -9 -93 -43 -61 -24 -27 -28 -13 -86 0
-160 -73 0
-160 92 0
-160 93 0
-160 36 0
-160 -46 0
-160 -17 0
-160 95 0
-160 -69 0
-160 3 0
-160 -56 0
160 73 -92 -93 -36 46 17 -95 69 -3 56 0
151 152 153 154 155 156 157 158 159 160 0
-161 69 0
-161 74 0
-161 -97 0
-161 48 0
-161 -37 0
-161 -85 0
-161 -22 0
-161 -93 0
-161 -12 0
-161 2 0
161 -69 -74 97 -48 37 85 22 93 12 -2 0
-162 -51 0
-162 89 0
-162 60 0
-162 -82 0
-162 66 0
-162 12 0
-162 -9 0
-162 40 0
-162 54 0
-162 -75 0
162 51 -89 -60 82 -66 -12 9 -40 -54 75 0
-163 -40 0
-163 95 0
-163 -52 0
-163 -78 0
-163 71 0
-163 3 0
-163 62 0
-163 -67 0
-163 39 0
-163 -11 0
163 40 -95 52 78 -71 -3 -62 67 -39 11 0
-164 3 0
-164 12 0
-164 72 0
-164 23 0
-164 -28 0
-164 40 0
-164 -45 0
-164 -24 0
-164 -100 0
-164 42 0
164 -3 -12 -72 -23 28 -40 45 24 100 -42 0
-165 -76 0
-165 15 0
-165 -56 0
-165 -12 0
-165 30 0
-165 -73 0
-165 -43 0
-165 -93 0
-165 -92 0
-165 -65 0
165 76 -15 56 12 -30 73 43 93 92 65 0
-166 50 0
-166 59 0
-166 -58 0
-166 27 0
-166 -61 0
-166 -73 0
-166 32 0
-166 54 0
-166 4 0
-166 74 0
166 -50 -59 58 -27 61 73 -32 -54 -4 -74 0
-167 31 0
-167 -59 0
-167 -43 0
-167 -7 0
-167 -36 0
-167 100 0
-167 -74 0
-167 -28 0
-167 1 0
-167 53 0
167 -31 59 43 7 36 -100 74 28 -1 -53 0
-168 -97 0
-168 -75 0
-168 -34 0
-168 -21 0
-168 68 0
-168 71 0
-168 12 0
-168 -17 0
-168 -51 0
-168 -22 0
168 97 75 34 21 -68 -71 -12 17 51 22 0
-169 61 0
-169 44 0
-169 -86 0
-169 -11 0
-169 9 0
-169 81 0
-169 -62 0
-169 8 0
-169 -26 0
-169 -12 0
169 -61 -44 86 11 -9 -81 62 -8 26 12 0
-170 -38 0
-170 -97 0
-170 25 0
-170 5 0
-170 98 0
-170 -66 0
-170 -2 0
-170 54 0
-170 35 0
-170 -32 0
170 38 97 -25 -5 -98 66 2 -54 -35 32 0
161 162 163 164 165 166 167 168 169 170 0
-171 35 0
-171 40 0
-171 -87 0
-171 -27 0
-171 -45 0
-171 93 0
-171 61 0
-171 -39 0
-171 -97 0
-171 94 0
171 -35 -40 87 27 45 -93 -61 39 97 -94 0
-172 94 0
-172 -60 0
-172 74 0
-172 -91 0
-172 34 0
-172 -10 0
-172 -8 0
-172 -11 0
-172 45 0
-172 -54 0
172 -94 60 -74 91 -34 10 8 11 -45 54 0
-173 -76 0
-173 23 0
-173 -3 0
-173 39 0
-173 48 0
-173 -100 0
-173 89 0
-173 -20 0
-173 12 0
-173 9 0
173 76 -23 3 -39 -48 100 -89 20 -12 -9 0
-174 -13 0
-174 19 0
-174 -81 0
-174 47 0
-174 -69 0
-174 -71 0
-174 -49 0
-174 67 0
-174 15 0
-174 -30 0
174 13 -19 81 -47 69 71 49 -67 -15 30 0
-175 97 0
-175 63 0
-175 -22 0
-175 15 0
-175 -73 0
-175 -28 0
-175 71 0
-175 -17 0
-175 11 0
-175 57 0
175 -97 -63 22 -15 73 28 -71 17 -11 -57 0
-176 85 0
-176 -78 0
-176 16 0
-176 94 0
-176 -89 0
-176 -64 0
-176 -72 0
-176 -65 0
-176 26 0
-176 11 0
176 -85 78 -16 -94 89 64 72 65 -26 -11 0
-177 6 0
-177 -20 0
-177 -29 0
-177 4 0
-177 53 0
-177 28 0
-177 65 0
-177 -87 0
-177 31 0
-177 75 0
177 -6 20 29 -4 -53 -28 -65 87 -31 -75 0
-178 -85 0
-178 77 0
-178 -46 0
-178 30 0
-178 -68 0
-178 42 0
-178 25 0
-178 24 0
-178 -99 0
-178 -76 0
178 85 -77 46 -30 68 -42 -25 -24 99 76 0
-179 -75 0
-179 -69 0
-179 43 0
-179 -26 0
-179 28 0
-179 -51 0
-179 42 0
-179 65 0
-179 -77 0
-179 -96 0
179 75 69 -43 26 -28 51 -42 -65 77 96 0
-180 -42 0
-180 22 0
-180 77 0
-180 -80 0
-180 53 0
-180 97 0
-180 -78 0
-180 51 0
-180 -69 0
-180 7 0
180 42 -22 -77 80 -53 -97 78 -51 69 -7 0
171 172 173 174 175 176 177 178 179 180 0
-181 -39 0
-181 99 0
-181 -30 0
-181 -43 0
-181 82 0
-181 86 0
-181 61 0
-181 -29 0
-181 -5 0
-181 2 0
181 39 -99 30 43 -82 -86 -61 29 5 -2 0
-182 -85 0
-182 9 0
-182 -45 0
-182 6 0
-182 10 0
-182 -68 0
-182 -33 0
-182 -39 0
-182 56 0
-182 -38 0
182 85 -9 45 -6 -10 68 33 39 -56 38 0
-183 -39 0
-183 40 0
-183 -100 0
-183 -44 0
-183 -82 0
-183 -80 0
-183 92 0
-183 26 0
-183 58 0
-183 -74 0
183 39 -40 100 44 82 80 -92 -26 -58 74 0
-184 43 0
-184 -9 0
-184 58 0
-184 20 0
-184 -54 0
-184 2 0
-184 -12 0
-184 -71 0
-184 -88 0
-184 100 0
184 -43 9 -58 -20 54 -2 12 71 88 -100 0
-185 -60 0
-185 -12 0
-185 66 0
-185 -62 0
-185 -41 0
-185 -18 0
-185 -99 0
-185 -94 0
-185 6 0
-185 97 0
185 60 12 -66 62 41 18 99 94 -6 -97 0
-186 48 0
-186 -83 0
-186 74 0
-186 72 0
-186 -12 0
-186 91 0
-186 -31 0
-186 -59 0
-186 53 0
-186 -77 0
186 -48 83 -74 -72 12 -91 31 59 -53 77 0
-187 -19 0
-187 1 0
-187 17 0
-187 -100 0
-187 -49 0
-187 15 0
-187 -54 0
-187 89 0
-187 -92 0
-187 -35 0
187 19 -1 -17 100 49 -15 54 -89 92 35 0
-188 89 0
-188 -52 0
-188 8 0
-188 -77 0
-188 -66 0
-188 55 0
-188 98 0
-188 -80 0
-188 -34 0
-188 -25 0
188 -89 52 -8 77 66 -55 -98 80 34 25 0
-189 84 0
-189 61 0
-189 59 0
-189 -60 0
-189 -94 0
-189 -83 0
-189 -47 0
-189 11 0
-189 30 0
-189 -1 0
189 -84 -61 -59 60 94 83 47 -11 -30 1 0
-190 -65 0
-190 56 0
-190 -76 0
-190 91 0
-190 58 0
-190 34 0
-190 -50 0
-190 92 0
-190 25 0
-190 20 0
190 65 -56 76 -91 -58 -34 50 -92 -25 -20 0
181 182 183 184 185 186 187 188 189 190 0
-191 62 0
-191 -93 0
-191 20 0
-191 99 0
-191 -40 0
-191 23 0
-191 36 0
-191 -90 0
-191 -53 0
-191 59 0
191 -62 93 -20 -99 40 -23 -36 90 53 -59 0
-192 -29 0
-192 -97 0
-192 68 0
-192 85 0
-192 -58 0
-192 -100 0
-192 76 0
-192 93 0
-192 13 0
-192 60 0
192 29 97 -68 -85 58 100 -76 -93 -13 -60 0
-193 -92 0
-193 18 0
-193 96 0
-193 53 0
-193 -74 0
-193 -77 0
-193 -100 0
-193 5 0
-193 75 0
-193 -55 0
193 92 -18 -96 -53 74 77 100 -5 -75 55 0
-194 44 0
-194 10 0
-194 -69 0
-194 -50 0
-194 55 0
-194 -83 0
-194 -87 0
-194 -95 0
-194 81 0
-194 75 0
194 -44 -10 69 50 -55 83 87 95 -81 -75 0
-195 4 0
-195 -33 0
-195 81 0
-195 -15 0
-195 56 0
-195 -76 0
-195 61 0
-195 68 0
-195 37 0
-195 -55 0
195 -4 33 -81 15 -56 76 -61 -68 -37 55 0
-196 -4 0
-196 78 0
-196 27 0
-196 38 0
-196 -22 0
-196 30 0
-196 -84 0
-196 -31 0
-196 -48 0
-196 -37 0
196 4 -78 -27 -38 22 -30 84 31 48 37 0
-197 -60 0
-197 -41 0
-197 -17 0
-197 70 0
-197 21 0
-197 -8 0
-197 -37 0
-197 43 0
-197 35 0
-197 -22 0
197 60 41 17 -70 -21 8 37 -43 -35 22 0
-198 45 0
-198 -100 0
-198 13 0
-198 -21 0
-198 -68 0
-198 -89 0
-198 86 0
-198 -2 0
-198 -23 0
-198 96 0
198 -45 100 -13 21 68 89 -86 2 23 -96 0
-199 88 0
-199 -14 0
-199 -25 0
-199 53 0
-199 48 0
-199 64 0
-199 -92 0
-199 -99 0
-199 -23 0
-199 -33 0
199 -88 14 25 -53 -48 -64 92 99 23 33 0
-200 66 0
-200 41 0
-200 90 0
-200 30 0
-200 68 0
-200 -58 0
-200 42 0
-200 -33 0
-200 -54 0
-200 -87 0
200 -66 -41 -90 -30 -68 58 -42 33 54 87 0
191 192 193 194 195 196 197 198 199 200 0
